c --- [ banner ] -------------------------------------------------------------
c 
c CaDiCaL Radically Simplified CDCL SAT Solver
c Copyright (c) 2016-2021 A. Biere, M. Fleury, N. Froleyks
c 
c Version 1.5.2 ca9bff05c11bde5eae4912f9932871d1527e61d8
c g++ (GCC) 9.3.0 -Wall -Wextra -O3 -DNDEBUG
c Thu Jul 28 23:42:48 EDT 2022 Linux gra-login3 3.10.0-1160.66.1.el7.x86_64 x86_64
c 
c --- [ limit ] --------------------------------------------------------------
c 
c setting conflict limit to 200000 conflicts (due to '200000')
c 
c --- [ parsing input ] ------------------------------------------------------
c 
c reading DIMACS file from '23.cubes195.adj'
c opening file to read '23.cubes195.adj'
c found 'p cnf 5320 914896' header
c parsed 914896 clauses in 8.30 seconds process time
c closing file '23.cubes195.adj'
c after reading 637830013 bytes 608.3 MB
c 
c --- [ options ] ------------------------------------------------------------
c 
c all options are set to their default value
c 
c --- [ solving ] ------------------------------------------------------------
c 
c time measured in process time since initialization
c 
c  seconds   reductions  redundant  irredundant
c          MB    restarts       trail      variables
c           level   conflicts       glue        remaining
c 
c *  8.30 630  0 0   0    0    0  0% 0 914847 2067 39%
c {  8.84 663  0 0   0    0    0  0% 0 914847 2067 39%
c i  9.13 670 582 0   0   11    9 27% 1 914847 2058 39%
c i 10.13 695 545 0   5   36   30 35% 17 914847 2044 38%
c i 10.14 695 530 0   5   37   30 35% 16 914847 2043 38%
c i 10.29 697 449 0   7   44   36 33% 19 914847 2042 38%
c i 10.70 701 118 0   9  174   65 19% 10 914847 2041 38%
c i 11.54 704 104 0  21  227  114 21% 16 914847 2040 38%
c i 11.59 705 104 0  21  229  115 21% 15 914847 2036 38%
c - 13.89 650 84 1  26  303  133 20% 13 159694 2036 38%
c i 13.99 633 76 1  26  341  144 20% 12 159694 2035 38%
c i 14.34 633 76 1  35  387  188 20% 15 159694 2034 38%
c i 14.43 633 75 1  40  410  205 21% 17 159694 2033 38%
c i 14.44 633 75 1  41  412  206 21% 17 159694 2032 38%
c i 14.51 634 72 1  48  438  228 21% 17 159694 2031 38%
c i 14.52 634 72 1  49  440  229 21% 17 159694 2030 38%
c i 14.61 634 69 1  58  479  258 22% 18 159694 2029 38%
c i 14.63 634 68 1  60  487  264 22% 18 159694 2028 38%
c i 14.67 634 67 1  63  501  272 22% 18 159694 2017 38%
c i 14.79 634 69 1  70  527  295 22% 21 159694 2015 38%
c 
c  seconds   reductions  redundant   irredundant
c          MB    restarts       trail       variables
c           level   conflicts       glue         remaining
c 
c i 14.88 634 68 1  73  543  300 22% 20 159694 2014 38%
c i 14.93 634 64 1  78  575  311 21% 20 159694 2013 38%
c i 15.08 634 64 1  78  591  321 22% 20 159694 2012 38%
c i 15.09 634 64 1  78  593  322 22% 20 159694 2011 38%
c i 15.11 634 64 1  78  604  332 22% 20 159694 2010 38%
c i 15.31 634 65 1  85  647  366 22% 22 159694 2009 38%
c i 15.34 634 66 1  88  657  375 22% 22 159694 2008 38%
c i 15.36 634 66 1  91  668  384 22% 23 159694 2007 38%
c i 15.42 634 66 1  95  680  395 22% 23 159694 2006 38%
c i 15.45 634 66 1  98  694  408 22% 23 159694 2005 38%
c i 15.49 634 66 1 101  704  417 23% 23 159694 2003 38%
c i 15.53 634 65 1 106  723  433 23% 23 159694 2002 38%
c i 15.82 634 69 1 111  788  489 23% 23 159694 2001 38%
c i 15.85 634 68 1 112  789  489 23% 23 159694 2000 38%
c i 15.99 634 63 1 116  899  544 23% 22 159694 1999 38%
c i 16.00 634 63 1 116  903  546 23% 22 159694 1998 38%
c i 16.00 634 62 1 116  906  548 24% 22 159694 1997 38%
c i 16.04 634 62 1 116  926  567 24% 22 159694 1996 38%
c i 16.07 634 62 1 116  936  575 24% 22 159694 1995 38%
c i 16.09 634 62 1 116  947  584 24% 22 159694 1994 37%
c 
c  seconds   reductions  redundant   irredundant
c          MB    restarts       trail       variables
c           level   conflicts       glue         remaining
c 
c i 16.11 634 61 1 116  948  584 24% 22 159694 1993 37%
c i 16.11 634 61 1 116  951  586 24% 22 159694 1992 37%
c i 16.11 634 61 1 116  953  587 24% 22 159694 1991 37%
c i 16.11 634 61 1 116  954  587 24% 22 159694 1990 37%
c i 16.12 634 61 1 116  968  597 24% 22 159694 1989 37%
c i 16.13 634 61 1 116  973  600 24% 22 159694 1988 37%
c i 16.13 634 61 1 116  975  601 24% 22 159694 1987 37%
c i 16.15 634 61 1 116  979  604 24% 22 159694 1986 37%
c i 16.17 634 61 1 118  989  611 24% 22 159694 1983 37%
c i 16.23 634 63 1 119 1006  618 24% 22 159694 1980 37%
c } 16.23 634 63 1 119 1006  618 24% 22 159694 1980 37%
c [ 16.23 634  0 1 119 1006  618  0% 0 159694 1980 37%
c O 16.23 634  0 1 119 1007  618 10% 0 159694 1980 37%
c i 16.23 634  0 1 119 1007  618 10% 0 159694 1958 37%
c - 16.72 698  6 2 119 1024  570 13% 6 158798 1958 37%
c i 16.78 698  8 2 119 1049  576 15% 7 158798 1957 37%
c i 16.78 698  8 2 119 1050  576 16% 7 158798 1956 37%
c i 16.78 698  8 2 119 1051  576 16% 7 158798 1955 37%
c i 16.78 698  8 2 119 1052  576 16% 7 158798 1954 37%
c i 16.78 698  7 2 119 1053  576 16% 6 158798 1953 37%
c 
c  seconds   reductions  redundant  irredundant
c          MB    restarts       trail      variables
c           level   conflicts       glue        remaining
c 
c i 16.81 698 11 2 119 1061  583 18% 9 158798 1952 37%
c i 16.82 698 11 2 119 1062  583 18% 8 158798 1951 37%
c i 16.85 698 17 2 119 1077  597 21% 13 158798 1950 37%
c i 16.86 698 17 2 119 1080  599 21% 13 158798 1949 37%
c i 16.86 698 17 2 119 1081  599 21% 13 158798 1948 37%
c i 16.87 698 17 2 119 1083  600 21% 13 158798 1947 37%
c i 16.91 698 20 2 119 1096  612 22% 15 158798 1946 37%
c i 16.92 698 21 2 119 1103  618 23% 16 158798 1945 37%
c i 16.96 698 25 2 119 1140  647 25% 20 158798 1944 37%
c i 16.97 698 26 2 119 1157  657 25% 21 158798 1943 37%
c i 17.00 698 27 2 119 1193  681 26% 22 158798 1942 37%
c i 17.01 698 27 2 119 1210  697 26% 21 158798 1941 36%
c i 17.02 698 26 2 119 1233  709 27% 21 158798 1940 36%
c i 17.05 698 26 2 119 1284  748 27% 21 158798 1939 36%
c i 17.08 698 26 2 119 1340  788 28% 22 158798 1938 36%
c i 17.11 698 26 2 119 1407  841 28% 22 158798 1937 36%
c i 17.20 698 25 2 119 1593  981 29% 21 158798 1936 36%
c i 17.20 698 25 2 119 1594  981 29% 21 158798 1935 36%
c i 17.21 698 25 2 119 1628 1004 29% 21 158798 1934 36%
c i 17.33 698 25 2 119 1905 1211 29% 21 158798 1933 36%
c 
c  seconds   reductions  redundant   irredundant
c          MB    restarts       trail       variables
c           level   conflicts       glue         remaining
c 
c i 17.34 698 25 2 119 1912 1213 29% 21 158798 1932 36%
c i 17.34 698 25 2 119 1913 1213 29% 21 158798 1931 36%
c - 17.63 696 25 3 120 2104 1079 30% 21 158717 1931 36%
c i 17.96 696 24 3 120 2263 1163 52% 20 158717 1930 36%
c i 18.05 695 23 3 120 2439 1260 52% 20 158717 1929 36%
c i 18.09 695 23 3 120 2509 1303 52% 20 158717 1928 36%
c ] 18.25 695 22 3 120 3006 1590 53% 19 158717 1928 36%
c { 18.25 695 63 3 120 3006 1590 65% 22 158717 1928 36%
c F 18.29 695 63 3 122 3010 1594 65% 22 158717 1928 36%
c i 18.29 695 63 3 123 3014 1597 65% 22 158717 1927 36%
c i 18.29 695 63 3 123 3015 1597 65% 22 158717 1926 36%
c i 18.29 695 63 3 123 3016 1597 65% 22 158717 1925 36%
c i 18.30 695 63 3 124 3017 1597 65% 22 158717 1924 36%
c i 18.32 695 62 3 124 3023 1602 65% 22 158717 1923 36%
c i 18.33 695 63 3 124 3030 1608 65% 22 158717 1922 36%
c i 18.39 695 63 3 128 3050 1624 64% 22 158717 1921 36%
c i 18.39 695 62 3 129 3055 1628 64% 22 158717 1920 36%
c i 18.46 695 62 3 139 3103 1660 63% 22 158717 1919 36%
c i 18.78 695 62 3 158 3185 1725 62% 23 158717 1918 36%
c i 18.81 695 62 3 161 3194 1731 62% 23 158717 1917 36%
c 
c  seconds   reductions  redundant   irredundant
c          MB    restarts       trail       variables
c           level   conflicts       glue         remaining
c 
c i 18.97 695 62 3 168 3242 1767 61% 23 158717 1916 36%
c i 19.08 695 62 3 176 3270 1791 61% 24 158717 1915 36%
c i 19.22 695 62 3 187 3305 1822 60% 24 158717 1914 36%
c i 19.33 695 62 3 193 3329 1845 60% 25 158717 1913 36%
c i 19.52 695 62 3 204 3393 1890 59% 25 158717 1912 36%
c i 19.58 695 62 3 209 3415 1909 59% 25 158717 1911 36%
c i 19.71 695 62 3 231 3497 1976 58% 26 158717 1910 36%
c i 19.71 695 62 3 231 3498 1976 58% 26 158717 1909 36%
c i 19.83 695 61 3 240 3535 2011 58% 26 158717 1908 36%
c i 19.85 695 61 3 242 3542 2017 58% 26 158717 1907 36%
c - 20.06 693 61 4 243 3545 1435 58% 26 158645 1907 36%
c i 20.13 693 61 4 243 3573 1455 57% 25 158645 1906 36%
c i 20.27 693 60 4 243 3615 1481 57% 25 158645 1905 36%
c i 20.67 693 52 4 243 4122 1888 55% 24 158645 1904 36%
c i 20.69 693 52 4 243 4134 1899 55% 24 158645 1903 36%
c i 20.98 693 46 4 245 4681 2282 54% 22 158645 1902 36%
c i 21.19 693 45 4 262 4791 2372 53% 23 158645 1901 36%
c i 21.23 693 46 4 266 4817 2395 53% 23 158645 1900 36%
c i 21.45 693 46 4 291 4949 2502 53% 23 158645 1899 36%
c 3 21.92 693 46 4 301 5000 3499 53% 23 158595 1886 35%
c 
c  seconds   reductions  redundant   irredundant
c          MB    restarts       trail       variables
c           level   conflicts       glue         remaining
c 
c d 22.01 693 46 4 301 5000 3571 53% 23 158568 1884 35%
c 2 22.03 693 46 4 301 5000 3570 53% 23 158568 1884 35%
c p 25.76 692 46 4 301 5000 6550 53% 23 158568 1827 34%
c d 25.99 692 46 4 301 5000 6273 53% 23 158397 1826 34%
c - 26.52 688 44 5 301 5347 2065 53% 22 158397 1826 34%
c # 26.79 688 39 5 301 6011 2509 53% 21 158397 1826 34%
c } 27.82 688 36 5 320 7009 3183 52% 20 158397 1826 34%
c [ 27.82 688 22 5 320 7009 3183 53% 19 158397 1826 34%
c - 28.27 688 22 6 321 7508 2437 52% 19 158397 1826 34%
c I 29.72 688 30 6 322 10015 4085 50% 25 158397 1826 34%
c - 29.84 689 30 7 322 10029 2830 50% 26 158397 1826 34%
c - 33.16 688 42 8 324 12911 3316 49% 35 158397 1826 34%
c p 35.74 688 45 8 325 15001 9969 48% 37 158397 1815 34%
c d 35.93 688 45 8 325 15001 9782 48% 37 138680 1814 34%
c ] 36.00 688 45 8 325 15010 9788 48% 37 138680 1814 34%
c { 36.00 688 36 8 325 15010 9788 52% 20 138680 1814 34%
c B 36.06 688 36 8 325 15016 9793 52% 20 138680 1814 34%
c - 36.57 634 32 9 331 16150 3981 51% 19 138680 1814 34%
c s 36.98 634 29 9 339 17581 4702 51% 18 136970 1814 34%
c v 38.79 634 29 9 339 17581 4702 51% 18 136925 1814 34%
c 
c  seconds   reductions   redundant   irredundant
c          MB    restarts        trail       variables
c           level    conflicts       glue         remaining
c 
c t 38.85 634 29 9 339 17581 4681 51% 18 136910 1814 34%
c e 39.30 634 29 9 339 17581 4236 51% 18 134053 509 10%
c s 39.37 634 29 9 339 17581 4236 51% 18 133661 509 10%
c - 41.60 634 28 10 384 19577 3814 85% 18 133661 509 10%
c W 42.49 634 26 10 394 21017 4623 86% 17 133661 509 10%
c - 43.69 634 24 11 407 23292 3887 87% 16 133661 509 10%
c - 46.00 636 22 12 467 27346 4171 87% 16 133661 509 10%
c F 46.48 636 22 12 477 28020 4584 87% 15 133661 509 10%
c 3 49.02 636 22 12 669 30002 6285 87% 16 133661 509 10%
c p 50.26 636 22 12 669 30002 8335 87% 16 133661 503  9%
c } 51.06 636 22 12 686 31011 8863 87% 16 133661 503  9%
c [ 51.06 636 45 12 686 31011 8863 183% 37 133661 503  9%
c - 51.76 636 43 13 686 31740 4939 176% 36 133643 503  9%
c B 54.70 636 37 13 689 36023 7924 147% 31 133643 503  9%
c - 54.97 636 37 14 689 36468 5757 145% 31 133643 503  9%
c - 57.12 636 35 15 692 41534 5683 129% 29 133643 503  9%
c W 59.86 636 33 15 693 45027 7764 122% 28 133643 503  9%
c - 60.93 636 32 16 694 46939 5987 119% 27 133643 503  9%
c s 62.08 636 32 16 694 49728 7855 116% 27 132998 503  9%
c v 63.91 636 32 16 694 49728 7855 116% 27 132987 503  9%
c 
c  seconds   reductions    redundant    irredundant
c          MB     restarts        trail        variables
c           level     conflicts        glue        remaining
c 
c t 63.97 636 32 16 694 49728 7852 116% 27 132987 503  9%
c e 64.39 636 32 16 694 49728 7844 116% 27 132986 501  9%
c s 64.49 636 32 16 694 49728 7844 116% 27 132165 501  9%
c p 65.87 636 32 16 694 50004 10181 115% 27 132165 501  9%
c ] 66.00 636 32 16 694 50135 10259 115% 27 132165 501  9%
c 1 66.00 636 32 16 694 50135 10259 115% 27 132165 501  9%
c 
c --- [ writing output ] -----------------------------------------------------
c 
c writing simplified CNF to DIMACS file 'simp/23.cubes195.adj.simp1'
c * 66.00 636 32 16 694 50135 10259 115% 27 132165 501  9%
c opening file to write 'simp/23.cubes195.adj.simp1'
c writing 'p cnf 5320 132165' header
c closing file 'simp/23.cubes195.adj.simp1'
c after writing 50866113 bytes 48.5 MB
c wrote 132165 clauses in 0.50 seconds process time
c 
c --- [ writing extension ] --------------------------------------------------
c 
c writing extension stack to 'simp/23.cubes195.adj.ext1'
c opening file to write 'simp/23.cubes195.adj.ext1'
c closing file 'simp/23.cubes195.adj.ext1'
c after writing 88660 bytes 0.1 MB
c wrote 3873 witnesses in 0.00 seconds process time
c 
c --- [ result ] -------------------------------------------------------------
c 
s SATISFIABLE
c 
c --- [ run-time profiling ] -------------------------------------------------
c 
c process time taken by individual solving procedures
c (percentage relative to process time for solving)
c 
c        43.91   76.10% search
c        23.45   40.64% unstable
c        19.18   33.24% stable
c        13.79   23.90% simplify
c         8.30   14.38% parse
c         7.13   12.35% probe
c         3.72    6.46% vivify
c         1.66    2.88% elim
c         0.74    1.29% walk
c         0.54    0.93% lucky
c         0.34    0.58% subsume
c         0.09    0.16% ternary
c   =================================
c        57.70   86.76% solve
c 
c last line shows process time for solving
c (percentage relative to total process time)
c 
c --- [ statistics ] ---------------------------------------------------------
c 
c chronological:              7247        14.45 %  of conflicts
c conflicts:                 50135       868.85    per second
c decisions:                 89914      1558.23    per second
c eliminated:                 1307        24.57 %  of all variables
c fixed:                       658        12.37 %  of all variables
c learned:                   49206        98.15 %  per conflict
c learned_lits:            8220456       100.00 %  learned literals
c minimized:                     0         0.00 %  learned literals
c shrunken:                5597922        68.10 %  learned literals
c minishrunken:             473780         5.76 %  learned literals
c propagations:            3804950         0.07 M  per second
c reduced:                   23339        46.55 %  per conflict
c rephased:                      9      5570.56    interval
c restarts:                    694        72.24    interval
c stabilizing:                   3        58.09 %  of conflicts
c substituted:                  17         0.32 %  of all variables
c subsumed:                  20864         1.03 %  of all clauses
c strengthened:               3209         0.16 %  of all clauses
c ternary:                    2669         0.74 %  of resolved
c vivified:                     79         0.00 %  of all clauses
c walked:                        2     25067.50    interval
c weakened:                   3215         3.05    average size
c 
c seconds are measured in process time for solving
c 
c --- [ resources ] ----------------------------------------------------------
c 
c total process time since initialization:        66.51    seconds
c total real time since initialization:           67.35    seconds
c maximum resident set size of process:          759.70    MB
c 
c --- [ shutting down ] ------------------------------------------------------
c 
c exit 10
WARNING! DIMACS header mismatch: wrong number of variables.
============================[ Problem Statistics ]=============================
|                                                                             |
|  Number of variables:          4917                                         |
|  Number of clauses:          132169                                         |
|  Parse time:                   0.68 s                                       |
|  Simplification time:          0.01 s                                       |
|                                                                             |
============================[ Search Statistics ]====================================================
| Conflicts |          ORIGINAL         |          LEARNT          | Num Sols |      SUBGRAPHS      |
|           |    Vars  Clauses Literals |    Limit  Clauses Lit/Cl |          | Canonical Noncanon. |
=====================================================================================================
|       129 |    4836   132198 11375877 |     2000      129     60 |        0 |        25        29 |
|       323 |    4836   132242 11376793 |     2000      323     64 |        0 |        53        73 |
|       575 |    4836   132269 11377381 |     2000      575     71 |        0 |        70       100 |
|       926 |    4836   132283 11377744 |     2000      926     77 |        0 |        83       114 |
|      1468 |    4836   132319 11378526 |     2000     1468     81 |        0 |       107       150 |
|      2318 |    4836   132410 11380207 |     3598     1316     65 |        0 |       124       241 |
|      3627 |    4836   132580 11383024 |     3598     2625     71 |        0 |       197       411 |
|      5718 |    4836   132963 11389072 |     5001     2919     49 |        0 |       360       794 |
|      8891 |    4836   133574 11395791 |     6303     3594     44 |        0 |       560      1405 |
|     13278 |    4836   134117 11402595 |     7554     4832     43 |        0 |       727      1948 |
|     19831 |    4836   134904 11414213 |     8783     7614     51 |        0 |       989      2735 |
|     29031 |    4836   135455 11422219 |    11202     7433     42 |        0 |      1147      3286 |
|     43974 |    4836   137424 11442058 |    13610    10584     42 |        0 |      1666      5255 |
|     65487 |    4836   139476 11463397 |    17205     9892     28 |        0 |      2335      7307 |
=====================================================================================================
Number of solutions   : 0
Canonical subgraphs   : 2474           (144 /sec)
          order  3    : 1              (200000 /sec)
          order  4    : 1              (333333 /sec)
          order  5    : 1              (250000 /sec)
          order  6    : 1              (52632 /sec)
          order  7    : 2              (10638 /sec)
          order  8    : 4              (3683 /sec)
          order  9    : 6              (2188 /sec)
          order 10    : 15             (1171 /sec)
          order 11    : 35             (646 /sec)
          order 12    : 70             (438 /sec)
          order 13    : 68             (297 /sec)
          order 14    : 454            (200 /sec)
          order 15    : 1318           (144 /sec)
          order 16    : 308            (97 /sec)
          order 17    : 162            (88 /sec)
          order 18    : 25             (88 /sec)
          order 19    : 3              (86 /sec)
          order 20    : 0              (-nan /sec)
          order 21    : 0              (-nan /sec)
Noncanonical subgraphs: 8072           (750 /sec)
          order  3    : 0              (-nan /sec)
          order  4    : 0              (-nan /sec)
          order  5    : 0              (-nan /sec)
          order  6    : 0              (-nan /sec)
          order  7    : 0              (-nan /sec)
          order  8    : 0              (-nan /sec)
          order  9    : 0              (-nan /sec)
          order 10    : 0              (-nan /sec)
          order 11    : 0              (-nan /sec)
          order 12    : 0              (-nan /sec)
          order 13    : 294            (9112 /sec)
          order 14    : 1550           (1435 /sec)
          order 15    : 2898           (876 /sec)
          order 16    : 3313           (527 /sec)
          order 17    : 3              (3195 /sec)
          order 18    : 14             (263 /sec)
          order 19    : 0              (-nan /sec)
          order 20    : 0              (-nan /sec)
Canonicity checking   : 17.2196 s
Noncanonicity checking: 10.7595 s
Total canonicity time : 27.9791 s
database reductions   : 12
restarts              : 220
conflicts             : 70450          (1230 /sec)
decisions             : 109427         (0.00 % random) (1911 /sec)
propagations          : 2498466        (43635 /sec)
conflict literals     : 4625560        (59.89 % deleted)
actual reward         : 0.359292
Memory used           : 141.00 MB
CPU time              : 57.2577 s

UNSATISFIABLE
